55
9
0 11 12 13 16 17 19 20 22 23 25 26 27 28 29 30 32 33 36 39 40 47 48 49 50 51 52 53 54
1 9 10 11 12 14 16 17 19 20 26 31 32 39 40 42 43 45 47 48 49 51 53 54
2 12 13 15 16 17 19 24 25 26 28 29 33 36 39 40 43 45 46 47 49 51 52 53
3 10 11 12 14 16 19 20 21 22 23 26 27 28 30 31 32 36 38 39 41 43 44 47 48 50 51 53 54
4 10 11 13 14 16 17 19 22 25 27 28 29 31 32 33 35 37 38 39 40 42 44 47 49 50 52 54
5 21 26 27 31 32 33 34 40 42 47 48 52
6 11 19 21 25 33 38 40 42 46 47 53
7 23 26 33 34 50 52
8 18 20 48 51
